50
20128

689 610
879 964
61 332
460 224
817 806
746 859
675 711
450 532
617 440
576 931
311 288
357 878
883 571
993 188
348 174
485 295
440 821
984 132
902 917
322 61
255 393
841 638
70 506
863 424
927 95
457 404
982 104
927 264
798 578
116 230
808 651
495 938
491 593
100 295
381 283
464 713
650 837
408 704
234 21
484 132
109 296
272 172
111 869
9 292
176 817
126 863
39 307
240 642
330 8
443 131
